WARNING: for repeatability, setting FPU to use double precision
============================[ Problem Statistics ]=============================
|                                                                             |
|  Number of variables:        226967                                         |
|  Number of clauses:          510375                                         |
|  Parse time:                   0.17 s                                       |
|                                                                             |
============================[ Search Statistics ]==============================
| Conflicts |          ORIGINAL         |          LEARNT          | Progress |
|           |    Vars  Clauses Literals |    Limit  Clauses Lit/Cl |          |
===============================================================================
|       100 |  124140   485441  1092622 |   177995      100     15 | 45.305 % |
|       250 |  124140   485441  1092622 |   195794      250     15 | 45.305 % |
|       475 |  124140   485441  1092622 |   215373      475     25 | 45.305 % |
|       812 |  124140   485441  1092622 |   236911      812     28 | 45.305 % |
===============================================================================
restarts              : 7
conflicts             : 1002           (1298 /sec)
decisions             : 17689          (0.00 % random) (22912 /sec)
propagations          : 3570210        (4624337 /sec)
conflict literals     : 27506          (2.82 % deleted)
Memory used           : 57.00 MB
CPU time              : 0.772048 s

SATISFIABLE
